
;this file is automatically generated: Mon Nov 02 10:43:04 CST 2020

;declarations generated

(declare-fun oclExcludes ( Int Int) Bool)
(declare-fun Cardinality ( Int) Int)
(declare-fun class15_Class15IntAttr5 ( Int) Int)
(declare-fun class15_Class15IntAttr6 ( Int) Int)
(declare-fun class15_Class15IntAttr4 ( Int) Int)
(declare-fun type_7d146bb7_6658_447d_b6a4_fef116c872ba_Class14 ( Int) Bool)
(declare-fun type_7d146bb7_6658_447d_b6a4_fef116c872ba_Class13 ( Int) Bool)
(declare-fun type_7d146bb7_6658_447d_b6a4_fef116c872ba_Class12 ( Int) Bool)
(declare-fun type_7d146bb7_6658_447d_b6a4_fef116c872ba_Class11 ( Int) Bool)
(declare-fun type_7d146bb7_6658_447d_b6a4_fef116c872ba_Class17 ( Int) Bool)
(declare-fun type_7d146bb7_6658_447d_b6a4_fef116c872ba_Class16 ( Int) Bool)
(declare-fun type_7d146bb7_6658_447d_b6a4_fef116c872ba_Class15 ( Int) Bool)
(declare-fun type_7d146bb7_6658_447d_b6a4_fef116c872ba_Class10 ( Int) Bool)
(declare-fun obj_d2b71409_98ab_449f_9ce6_784f0b0bbb86 ( Int) Int)
(declare-fun oclSelect ( Int Bool) Int)
(declare-fun Enum0 ( Int) Int)
(declare-fun Enum1 ( Int) Int)
(declare-fun Enum2 ( Int) Int)
(declare-fun container_ ( Int) Int)
(declare-fun type_7d146bb7_6658_447d_b6a4_fef116c872ba_Class5 ( Int) Bool)
(declare-fun type_7d146bb7_6658_447d_b6a4_fef116c872ba_Class4 ( Int) Bool)
(declare-fun type_7d146bb7_6658_447d_b6a4_fef116c872ba_Class7 ( Int) Bool)
(declare-fun type_7d146bb7_6658_447d_b6a4_fef116c872ba_Class6 ( Int) Bool)
(declare-fun type_7d146bb7_6658_447d_b6a4_fef116c872ba_Class1 ( Int) Bool)
(declare-fun type_7d146bb7_6658_447d_b6a4_fef116c872ba_Class0 ( Int) Bool)
(declare-fun type_7d146bb7_6658_447d_b6a4_fef116c872ba_Class3 ( Int) Bool)
(declare-fun type_7d146bb7_6658_447d_b6a4_fef116c872ba_Class2 ( Int) Bool)
(declare-fun type_7d146bb7_6658_447d_b6a4_fef116c872ba_Class9 ( Int) Bool)
(declare-fun type_7d146bb7_6658_447d_b6a4_fef116c872ba_Class8 ( Int) Bool)
(declare-fun oclIncludes ( Int Int) Bool)
(declare-fun ObjAt ( Int Int) Int)

;formula(s) generated
(assert (forall ((p Int)) (=> ( type_7d146bb7_6658_447d_b6a4_fef116c872ba_Class15 p )  (and (>= ( Enum0 ( obj_d2b71409_98ab_449f_9ce6_784f0b0bbb86 p )  )  0) (<= ( Enum0 ( obj_d2b71409_98ab_449f_9ce6_784f0b0bbb86 p )  )  4)))))
(assert (! (forall ((c5_2 Int)(c5_1 Int)) (=> (and ( type_7d146bb7_6658_447d_b6a4_fef116c872ba_Class15 c5_1 )  ( type_7d146bb7_6658_447d_b6a4_fef116c872ba_Class15 c5_2 ) ) (not (= ( class15_Class15IntAttr4 ( obj_d2b71409_98ab_449f_9ce6_784f0b0bbb86 c5_1 )  )  ( class15_Class15IntAttr5 ( obj_d2b71409_98ab_449f_9ce6_784f0b0bbb86 c5_2 )  ) ) ))):named l0))
(assert (! (forall ((c5_2 Int)(c5_1 Int)) (=> (and ( type_7d146bb7_6658_447d_b6a4_fef116c872ba_Class15 c5_1 )  ( type_7d146bb7_6658_447d_b6a4_fef116c872ba_Class15 c5_2 ) ) (or (< ( class15_Class15IntAttr6 ( obj_d2b71409_98ab_449f_9ce6_784f0b0bbb86 c5_1 )  )  ( class15_Class15IntAttr5 ( obj_d2b71409_98ab_449f_9ce6_784f0b0bbb86 c5_2 )  ) ) (or (forall ((c5_2 Int)(c5_1 Int)) (=> (and ( type_7d146bb7_6658_447d_b6a4_fef116c872ba_Class15 c5_1 )  ( type_7d146bb7_6658_447d_b6a4_fef116c872ba_Class15 c5_2 ) ) (not (= ( class15_Class15IntAttr4 ( obj_d2b71409_98ab_449f_9ce6_784f0b0bbb86 c5_1 )  )  ( class15_Class15IntAttr6 ( obj_d2b71409_98ab_449f_9ce6_784f0b0bbb86 c5_2 )  ) ) ))) (forall ((v Int)) (=> ( type_7d146bb7_6658_447d_b6a4_fef116c872ba_Class15 v )  (not (= ( Enum0 ( obj_d2b71409_98ab_449f_9ce6_784f0b0bbb86 v )  )  0) ))))))):named l1))
(assert (! (exists ((c1 Int)) (and ( type_7d146bb7_6658_447d_b6a4_fef116c872ba_Class15 c1 )  (>= ( class15_Class15IntAttr4 ( obj_d2b71409_98ab_449f_9ce6_784f0b0bbb86 c1 )  )  15))):named l2))
(assert (! (forall ((c1 Int)) (=> ( type_7d146bb7_6658_447d_b6a4_fef116c872ba_Class15 c1 )  (< ( class15_Class15IntAttr4 ( obj_d2b71409_98ab_449f_9ce6_784f0b0bbb86 c1 )  )  11))):named l3))
(assert (! (or (forall ((c5_2 Int)(c5_1 Int)) (=> (and ( type_7d146bb7_6658_447d_b6a4_fef116c872ba_Class15 c5_1 )  ( type_7d146bb7_6658_447d_b6a4_fef116c872ba_Class15 c5_2 ) ) (< ( class15_Class15IntAttr6 ( obj_d2b71409_98ab_449f_9ce6_784f0b0bbb86 c5_1 )  )  ( class15_Class15IntAttr4 ( obj_d2b71409_98ab_449f_9ce6_784f0b0bbb86 c5_2 )  ) ))) (forall ((v Int)) (=> ( type_7d146bb7_6658_447d_b6a4_fef116c872ba_Class15 v )  (not (= ( class15_Class15IntAttr4 ( obj_d2b71409_98ab_449f_9ce6_784f0b0bbb86 v )  )  2) )))):named l4))
(assert (! (or (forall ((v Int)) (=> ( type_7d146bb7_6658_447d_b6a4_fef116c872ba_Class15 v )  (< ( class15_Class15IntAttr6 ( obj_d2b71409_98ab_449f_9ce6_784f0b0bbb86 v )  )  11))) (forall ((v Int)) (=> ( type_7d146bb7_6658_447d_b6a4_fef116c872ba_Class15 v )  (= ( class15_Class15IntAttr4 ( obj_d2b71409_98ab_449f_9ce6_784f0b0bbb86 v )  )  11)))):named l5))
(assert (! (exists ((o Int)) ( type_7d146bb7_6658_447d_b6a4_fef116c872ba_Class0 ( obj_d2b71409_98ab_449f_9ce6_784f0b0bbb86 o )  ) ):named c0))
(assert (! (exists ((o Int)) ( type_7d146bb7_6658_447d_b6a4_fef116c872ba_Class1 ( obj_d2b71409_98ab_449f_9ce6_784f0b0bbb86 o )  ) ):named c1))
(assert (! (exists ((o Int)) (and (and ( type_7d146bb7_6658_447d_b6a4_fef116c872ba_Class10 ( obj_d2b71409_98ab_449f_9ce6_784f0b0bbb86 o )  )  ( type_7d146bb7_6658_447d_b6a4_fef116c872ba_Class14 ( obj_d2b71409_98ab_449f_9ce6_784f0b0bbb86 o )  ) ) ( type_7d146bb7_6658_447d_b6a4_fef116c872ba_Class16 ( obj_d2b71409_98ab_449f_9ce6_784f0b0bbb86 o )  ) )):named c2))
(assert (! (exists ((o Int)) ( type_7d146bb7_6658_447d_b6a4_fef116c872ba_Class11 ( obj_d2b71409_98ab_449f_9ce6_784f0b0bbb86 o )  ) ):named c3))
(assert (! (exists ((o Int)) ( type_7d146bb7_6658_447d_b6a4_fef116c872ba_Class12 ( obj_d2b71409_98ab_449f_9ce6_784f0b0bbb86 o )  ) ):named c4))
(assert (! (exists ((o Int)) ( type_7d146bb7_6658_447d_b6a4_fef116c872ba_Class13 ( obj_d2b71409_98ab_449f_9ce6_784f0b0bbb86 o )  ) ):named c5))
(assert (! (exists ((o Int)) ( type_7d146bb7_6658_447d_b6a4_fef116c872ba_Class14 ( obj_d2b71409_98ab_449f_9ce6_784f0b0bbb86 o )  ) ):named c6))
(assert (! (exists ((o Int)) ( type_7d146bb7_6658_447d_b6a4_fef116c872ba_Class15 ( obj_d2b71409_98ab_449f_9ce6_784f0b0bbb86 o )  ) ):named c7))
(assert (! (exists ((o Int)) (and ( type_7d146bb7_6658_447d_b6a4_fef116c872ba_Class16 ( obj_d2b71409_98ab_449f_9ce6_784f0b0bbb86 o )  )  ( type_7d146bb7_6658_447d_b6a4_fef116c872ba_Class14 ( obj_d2b71409_98ab_449f_9ce6_784f0b0bbb86 o )  ) )):named c8))
(assert (! (exists ((o Int)) ( type_7d146bb7_6658_447d_b6a4_fef116c872ba_Class17 ( obj_d2b71409_98ab_449f_9ce6_784f0b0bbb86 o )  ) ):named c9))
(assert (! (exists ((o Int)) ( type_7d146bb7_6658_447d_b6a4_fef116c872ba_Class2 ( obj_d2b71409_98ab_449f_9ce6_784f0b0bbb86 o )  ) ):named c10))
(assert (! (exists ((o Int)) ( type_7d146bb7_6658_447d_b6a4_fef116c872ba_Class3 ( obj_d2b71409_98ab_449f_9ce6_784f0b0bbb86 o )  ) ):named c11))
(assert (! (exists ((o Int)) ( type_7d146bb7_6658_447d_b6a4_fef116c872ba_Class4 ( obj_d2b71409_98ab_449f_9ce6_784f0b0bbb86 o )  ) ):named c12))
(assert (! (exists ((o Int)) ( type_7d146bb7_6658_447d_b6a4_fef116c872ba_Class5 ( obj_d2b71409_98ab_449f_9ce6_784f0b0bbb86 o )  ) ):named c13))
(assert (! (exists ((o Int)) ( type_7d146bb7_6658_447d_b6a4_fef116c872ba_Class6 ( obj_d2b71409_98ab_449f_9ce6_784f0b0bbb86 o )  ) ):named c14))
(assert (! (exists ((o Int)) ( type_7d146bb7_6658_447d_b6a4_fef116c872ba_Class7 ( obj_d2b71409_98ab_449f_9ce6_784f0b0bbb86 o )  ) ):named c15))
(assert (! (exists ((o Int)) ( type_7d146bb7_6658_447d_b6a4_fef116c872ba_Class8 ( obj_d2b71409_98ab_449f_9ce6_784f0b0bbb86 o )  ) ):named c16))
(assert (! (exists ((o Int)) ( type_7d146bb7_6658_447d_b6a4_fef116c872ba_Class9 ( obj_d2b71409_98ab_449f_9ce6_784f0b0bbb86 o )  ) ):named c17))

 ;end of formula 